n_machines = 10;
n_resources = 12;
n_jobs = 27;
horizon = 1227;
LB = 220;
n_jobs_per_resource = [4, 2, 2, 1, 2, 2, 2, 3, 3, 4, 1, 1];
duration = [27, 94, 52, 47, 8, 64, 9, 76, 90, 42, 17, 78, 14, 61, 60, 19, 27, 5, 51, 5, 57, 94, 79, 13, 5, 93, 40]